(set-logic BV) (define-fun origCir ((n694 Bool) (n691 Bool) (n516 Bool) (n493 Bool)) Bool (and n694 (and n691 (not (and n516 n493))))) (synth-fun skel ((n694 Bool) (n691 Bool) (n516 Bool) (n493 Bool)) Bool) (declare-var n694 Bool) (declare-var n691 Bool) (declare-var n516 Bool) (declare-var n493 Bool) (constraint (= (origCir n694 n691 n516 n493) (skel n694 n691 n516 n493))) (check-synth)
